120 50
43 38
22 13
26 21
40 16
24 30
46 26
15 38
31 13
46 50
41 46
16 37
45 35
24 6
22 31
46 49
24 44
14 41
28 1
36 20
42 34
1 25
44 13
17 44
10 29
12 49
41 23
5 17
26 47
6 28
36 28
41 28
49 31
30 23
30 20
29 15
10 10
31 33
24 5
38 44
47 43
45 47
28 20
36 14
41 43
45 30
48 29
23 34
50 46
40 5
31 25
32 43
13 37
6 12
40 17
41 6
8 35
3 29
46 27
35 2
32 31
29 20
19 50
2 2
49 10
7 11
41 47
2 22
6 13
12 33
18 10
26 2
6 50
10 18
37 42
46 9
34 49
3 34
43 18
13 30
23 9
24 21
29 26
16 18
42 13
29 1
38 17
3 15
13 48
18 15
18 48
32 32
36 20
21 33
1 10
17 12
32 19
44 29
21 21
36 21
34 3
23 13
8 27
25 29
38 45
25 16
24 41
44 41
10 50
32 5
37 50
21 34
16 11
36 1
42 27
5 6
33 44
14 49
6 43
20 5
14 23
